SCIP Status        : solving was interrupted [time limit reached]
Total Time         :    3600.01
  solving          :    3600.00
  presolving       :       0.05 (included in solving)
  reading          :       0.00
  copying          :       0.21 (61 #copies) (minimal 0.00, maximal 0.00, average 0.00)
Original Problem   :
  Problem name     : beuster
  Variables        : 158 (52 binary, 0 integer, 0 implicit integer, 106 continuous)
  Constraints      : 114 initial, 114 maximal
  Objective        : minimize, 7 non-zeros (abs.min = 1, abs.max = 1)
Presolved Problem  :
  Problem name     : t_beuster
  Variables        : 255 (50 binary, 0 integer, 14 implicit integer, 191 continuous)
  Constraints      : 83 initial, 88 maximal
  Objective        : minimize, 7 non-zeros (abs.min = 1, abs.max = 1261.76)
  Nonzeros         : 300 constraint, 2 clique table
Presolvers         :   ExecTime  SetupTime  Calls  FixedVars   AggrVars   ChgTypes  ChgBounds   AddHoles    DelCons    AddCons   ChgSides   ChgCoefs
  boundshift       :       0.00       0.00      0          0          0          0          0          0          0          0          0          0
  convertinttobin  :       0.00       0.00      0          0          0          0          0          0          0          0          0          0
  domcol           :       0.00       0.00      3          0          0          0          0          0          0          0          0          0
  dualagg          :       0.00       0.00      0          0          0          0          0          0          0          0          0          0
  dualcomp         :       0.00       0.00      3          0          0          0          0          0          0          0          0          0
  dualinfer        :       0.00       0.00      0          0          0          0          0          0          0          0          0          0
  dualsparsify     :       0.00       0.00      1          0          0          0          0          0          0          0          0          0
  gateextraction   :       0.00       0.00      0          0          0          0          0          0          0          0          0          0
  implics          :       0.00       0.00      9          0          0          0          0          0          0          0          0          0
  inttobinary      :       0.00       0.00      0          0          0          0          0          0          0          0          0          0
  qpkktref         :       0.00       0.00      0          0          0          0          0          0          0          0          0          0
  redvub           :       0.00       0.00      0          0          0          0          0          0          0          0          0          0
  sparsify         :       0.00       0.00      1          0          0          0          0          0          0          0          0          0
  stuffing         :       0.00       0.00      0          0          0          0          0          0          0          0          0          0
  trivial          :       0.00       0.00     16          1          0          0          0          0          0          0          0          0
  tworowbnd        :       0.00       0.00      0          0          0          0          0          0          0          0          0          0
  dualfix          :       0.00       0.00     16          0          0          0          0          0          0          0          0          0
  genvbounds       :       0.00       0.00      0          0          0          0          0          0          0          0          0          0
  probing          :       0.02       0.00      3          1          0          0          6          0          0          0          0          0
  pseudoobj        :       0.00       0.00      0          0          0          0          0          0          0          0          0          0
  symmetry         :       0.00       0.00      1          0          0          0          0          0          0          0          0          0
  vbounds          :       0.00       0.00      1          0          0          0          0          0          0          0          0          0
  varbound         :       0.00       0.00     17          0          0          0          0          0         16          0          0          0
  setppc           :       0.00       0.00     22          0          0          0          0          0          1          0          0          0
  linear           :       0.00       0.00     23          3         34          0         77          0         46         32          8          0
  bounddisjunction :       0.00       0.00      0          0          0          0          0          0          0          0          0          0
  nonlinear        :       0.02       0.00     28          0          0          0        397          0          0        -32          0          0
  benders          :       0.00       0.00      0          0          0          0          0          0          0          0          0          0
  components       :       0.00       0.00      1          0          0          0          0          0          0          0          0          0
  root node        :          -          -      -          1          -          -        111          -          -          -          -          -
Constraints        :     Number  MaxNumber  #Separate #Propagate    #EnfoLP    #EnfoRelax  #EnfoPS    #Check   #ResProp    Cutoffs    DomReds       Cuts    Applied      Conss   Children
  benderslp        :          0          0          0          0     769314          0        985     168800          0          0          0          0          0          0          0
  integral         :          0          0          0          0     769314          0          0     168800          0          1      13830          0          0          4     101288
  varbound         :         12+        13         22    1085065          0          0        985     168795          0          0        174          0          0          0          0
  setppc           :          1          1         22       1253          0          0         34     168795          1          0          8          0          0          0          0
  linear           :         26+        32         22    1085111          0          0         20     168795        331       1737    1443543          0          0          0          0
  bounddisjunction :          0+         1          0       5992          0          0          0          0          0          0         68          0          0          0          0
  nonlinear        :         44         44    1194140    1083374     716948          0        985     158979          0      44344   15895384    7831941    5936582          0     379918
  benders          :          0          0          0          0          0          0        985        129          0          0          0          0          0          0          0
  countsols        :          0          0          0          0          0          0        985        129          0          0          0          0          0          0          0
  components       :          0          0          0          0          0          0          0          0          0          0          0          0          0          0          0
Constraint Timings :  TotalTime  SetupTime   Separate  Propagate     EnfoLP     EnfoPS     EnfoRelax   Check    ResProp    SB-Prop
  benderslp        :       0.28       0.00       0.00       0.00       0.27       0.00       0.00       0.01       0.00       0.00
  integral         :      16.09       0.00       0.00       0.00      16.07       0.00       0.00       0.02       0.00       0.00
  varbound         :       0.36       0.00       0.00       0.25       0.00       0.00       0.00       0.09       0.00       0.02
  setppc           :       0.03       0.00       0.00       0.00       0.00       0.00       0.00       0.03       0.00       0.00
  linear           :       5.41       0.00       0.00       5.11       0.00       0.00       0.00       0.14       0.00       0.15
  bounddisjunction :       0.01       0.00       0.00       0.01       0.00       0.00       0.00       0.00       0.00       0.00
  nonlinear        :     987.39       0.00     551.67     105.47     325.13       0.08       0.00       3.44       0.00       1.60
  benders          :       0.00       0.00       0.00       0.00       0.00       0.00       0.00       0.00       0.00       0.00
  countsols        :       0.00       0.00       0.00       0.00       0.00       0.00       0.00       0.00       0.00       0.00
  components       :       0.10       0.00       0.00       0.10       0.00       0.00       0.00       0.00       0.00       0.00
Propagators        : #Propagate   #ResProp    Cutoffs    DomReds
  dualfix          :          1          0          0          0
  genvbounds       :          0          0          0          0
  nlobbt           :          0          0          0          0
  obbt             :          0          0          0          0
  probing          :          0          0          0          0
  pseudoobj        :    1765868          0        250     105615
  redcost          :    2526772          0          0      29118
  rootredcost      :          0          0          0          0
  symmetry         :          0          0          0          0
  vbounds          :     122795          0          0        275
Propagator Timings :  TotalTime  SetupTime   Presolve  Propagate    ResProp    SB-Prop
  dualfix          :       0.00       0.00       0.00       0.00       0.00       0.00
  genvbounds       :       0.78       0.00       0.00       0.77       0.00       0.00
  nlobbt           :       0.00       0.00       0.00       0.00       0.00       0.00
  obbt             :       0.00       0.00       0.00       0.00       0.00       0.00
  probing          :       0.02       0.00       0.02       0.00       0.00       0.00
  pseudoobj        :       2.29       0.00       0.00       2.29       0.00       0.00
  redcost          :       6.77       0.00       0.00       6.77       0.00       0.00
  rootredcost      :       0.31       0.00       0.00       0.31       0.00       0.00
  symmetry         :       0.15       0.00       0.00       0.15       0.00       0.00
  vbounds          :       0.80       0.00       0.00       0.79       0.00       0.01
Conflict Analysis  :       Time      Calls    Success    DomReds  Conflicts   Literals    Reconvs ReconvLits   Dualrays   Nonzeros   LP Iters   (pool size: [10000,10000])
  propagation      :       0.00        250        249          -        259        6.7          0        0.0          -          -          -
  infeasible LP    :       0.29      11435        699          -         19        3.6          0        0.0        676        3.4          0
  bound exceed. LP :       0.18       4110          0          -          0        0.0          0        0.0          0        0.0          0
  strong branching :       0.00          0          0          -          0        0.0          0        0.0          -          -          0
  pseudo solution  :       0.00          0          0          -          0        0.0          0        0.0          -          -          -
  applied globally :       0.00          -          -          2          4        1.2          -          -         17          -          -
  applied locally  :          -          -          -         21          0        0.0          -          -        659          -          -
Separators         :   ExecTime  SetupTime      Calls  RootCalls    Cutoffs    DomReds  FoundCuts ViaPoolAdd  DirectAdd    Applied ViaPoolApp  DirectApp      Conss
  cut pool         :       0.10          -     115517         43          -          -       2196       1431          -          -          -          -          -    (maximal pool size:        244)
  aggregation      :       2.76       0.00       6999         22          0          0        895        644        131        332        295         37          0
  > cmir           :          -          -          -          -          -          -          -        164         79         62         45         17          -
  > flowcover      :          -          -          -          -          -          -          -         56         39         27         16         11          -
  > knapsackcover  :          -          -          -          -          -          -          -        424         13        243        234          9          -
  cgmip            :       0.00       0.00          0          0          0          0          0          0          0          0          0          0          0
  clique           :       0.00       0.00         22         22          0          0          0          0          0          0          0          0          0
  closecuts        :       0.00       0.00          0          0          0          0          0          0          0          0          0          0          0
  convexproj       :       0.00       0.00          0          0          0          0          0          0          0          0          0          0          0
  disjunctive      :       0.00       0.00          0          0          0          0          0          0          0          0          0          0          0
  eccuts           :       0.00       0.00          0          0          0          0          0          0          0          0          0          0          0
  gauge            :       0.00       0.00          0          0          0          0          0          0          0          0          0          0          0
  gomory           :       0.53       0.00       6645         10          0          0        728        217        213         58          3         55          0
  > gomorymi       :          -          -          -          -          -          -          -        104        207         58          3         55          -
  > strongcg       :          -          -          -          -          -          -          -        113          6          0          0          0          -
  impliedbounds    :       0.07       0.00       6999         22          0          0        538        503          0        229        229          0          0
  interminor       :       0.00       0.00          0          0          0          0          0          0          0          0          0          0          0
  intobj           :       0.00       0.00          0          0          0          0          0          0          0          0          0          0          0
  mcf              :       0.00       0.00          1          1          0          0          0          0          0          0          0          0          0
  minor            :       0.04       0.00          0          0          0          0          0          0          0          0          0          0          0
  mixing           :       1.09       0.00      52657         22          0          0        152         20          0          1          1          0          0
  oddcycle         :       0.00       0.00          0          0          0          0          0          0          0          0          0          0          0
  rapidlearning    :       0.00       0.00          0          0          0          0          0          0          0          0          0          0          0
  rlt              :       0.00       0.00         10         10          0          0          2          0          0          0          0          0          0
  zerohalf         :       0.51       0.00       6655         20          0          0        233         47          8          2          0          2          0
Cutselectors       :   ExecTime  SetupTime      Calls  RootCalls   Selected     Forced   Filtered  RootSelec   RootForc   RootFilt 
  hybrid           :       3.74       0.00    1059239         22    4941761          6    1596456        154          0        254
Pricers            :   ExecTime  SetupTime      Calls       Vars
  problem variables:       0.00          -          0          0
Branching Rules    :   ExecTime  SetupTime   BranchLP  BranchExt   BranchPS    Cutoffs    DomReds       Cuts      Conss   Children
  allfullstrong    :       0.00       0.00          0          0          0          0          0          0          0          0
  cloud            :       0.00       0.00          0          0          0          0          0          0          0          0
  distribution     :       0.00       0.00          0          0          0          0          0          0          0          0
  fullstrong       :       0.00       0.00          0          0          0          0          0          0          0          0
  inference        :       0.02       0.00          0          0       1451          0          0          0          0       2938
  leastinf         :       0.00       0.00          0          0          0          0          0          0          0          0
  lookahead        :       0.00       0.00          0          0          0          0          0          0          0          0
  mostinf          :       0.00       0.00          0          0          0          0          0          0          0          0
  multaggr         :       0.00       0.00          0          0          0          0          0          0          0          0
  nodereopt        :       0.00       0.00          0          0          0          0          0          0          0          0
  pscost           :       0.03       0.00          0        985          0          0          0          0          0       1970
  random           :       0.00       0.00          0          0          0          0          0          0          0          0
  relpscost        :      15.82       0.00      50915          0          0          1      13830          0          5      98350
  vanillafullstrong:       0.00       0.00          0          0          0          0          0          0          0          0
Primal Heuristics  :   ExecTime  SetupTime      Calls      Found       Best
  LP solutions     :       0.00          -          -          0          0
  relax solutions  :       0.00          -          -          0          0
  pseudo solutions :       0.00          -          -          0          0
  strong branching :       0.15          -          -          0          0
  actconsdiving    :       0.00       0.00          0          0          0
  adaptivediving   :       1.33       0.00       6106          0          0
  alns             :      20.16       0.00         21          1          1
  bound            :       0.00       0.00          0          0          0
  clique           :       0.00       0.00          1          0          0
  coefdiving       :       0.00       0.00          0          0          0
  completesol      :       0.00       0.00          0          0          0
  conflictdiving   :       2.25       0.00      13435          0          0
  crossover        :     121.79       0.00         11          4          0
  dins             :       0.00       0.00          0          0          0
  distributiondivin:      34.53       0.00       2091          0          0
  dps              :       0.00       0.00          0          0          0
  dualval          :       0.00       0.00          0          0          0
  farkasdiving     :       0.01       0.00          0          0          0
  feaspump         :       0.21       0.00         98          0          0
  fixandinfer      :       0.00       0.00          0          0          0
  fracdiving       :       1.11       0.00      13114          0          0
  gins             :       0.10       0.00          0          0          0
  guideddiving     :       1.06       0.00      13491          0          0
  indicator        :       0.55       0.00          0          0          0
  indicatordiving  :       0.00       0.00          0          0          0
  intdiving        :       0.00       0.00          0          0          0
  intshifting      :       0.12       0.00        102          0          0
  linesearchdiving :       0.73       0.00      13431          0          0
  localbranching   :       0.00       0.00          0          0          0
  locks            :       0.01       0.00          1          0          0
  lpface           :       0.15       0.00          9          0          0
  mpec             :      19.49       0.00         11          0          0
  multistart       :       0.00       0.00          0          0          0
  mutation         :       0.00       0.00          0          0          0
  nlpdiving        :       0.48       0.00          8          0          0
  objpscostdiving  :       1.57       0.00        656          0          0
  octane           :       0.00       0.00          0          0          0
  ofins            :       0.06       0.00          0          0          0
  oneopt           :       0.16       0.00          9          0          0
  padm             :       0.00       0.00          0          0          0
  proximity        :       0.00       0.00          0          0          0
  pscostdiving     :       4.92       0.00       2091          0          0
  randrounding     :       0.19       0.00       9815          0          0
  rens             :       0.00       0.00          0          0          0
  reoptsols        :       0.00       0.00          0          0          0
  repair           :       0.00       0.00          0          0          0
  rins             :      16.21       0.00         30          2          0
  rootsoldiving    :       0.93       0.00        646          0          0
  rounding         :       0.69       0.00       5665          0          0
  shiftandpropagate:       0.01       0.00          1          0          0
  shifting         :       0.20       0.00       1715          0          0
  simplerounding   :       0.63       0.00          0          0          0
  subnlp           :      79.22       0.00        212        120          8
  trivial          :       0.00       0.00          2          0          0
  trivialnegation  :       0.00       0.00          0          0          0
  trustregion      :       0.00       0.00          0          0          0
  trysol           :       0.29       0.00          0          0          0
  twoopt           :       0.00       0.00          0          0          0
  undercover       :       0.01       0.00          1          0          0
  vbounds          :       0.00       0.00          0          0          0
  veclendiving     :       0.93       0.00      13299          0          0
  zeroobj          :       0.00       0.00          0          0          0
  zirounding       :       0.10       0.00       1000          0          0
  other solutions  :          -          -          -          0          -
Expressions        :   #IntEval  IntEvalTi   #RevProp  RevPropTi    DomReds    Cutoffs  #Estimate  EstimTime  Branching  #Simplify SimplifyTi Simplified
  log              :    1884369       0.60    1210155       0.28          0          0          0       0.00          0         22       0.00          0
  pow              :    8562303       1.92    3586530       1.18    1327215          0   29171334       4.99    6654360        222       0.00         16
  prod             :   19224145       4.41    9876061       6.27    2475352       1648   33838657     535.88   12392081        477       0.00        157
  sum              :   12073870       3.43   10378234       5.04    3060188       1325         48       0.00          0        626       0.00        227
  val              :          0       0.00          0       0.00          0          0          0       0.00          0          0       0.00          0
  var              :   10325430       0.66          0       0.00          0          0          0       0.00          0       1339       0.00        151
  varidx           :          0       0.00          0       0.00          0          0          0       0.00          0          0       0.00          0
Nlhdlrs            :    Detects  DetectAll DetectTime   #IntEval  IntEvalTi   #RevProp  RevPropTi    DomReds    Cutoffs   #Enforce   EnfoTime       Cuts  Branching
  soc              :          0          0       0.00          0       0.00          0       0.00          0          0          0       0.00          0          0
  convex           :          4          4       0.00          0       0.00          0       0.00          0          0     290297       0.66     290287          0
  concave          :          4          4       0.00          0       0.00          0       0.00          0          0    2614196       6.14      66411          0
  signomial        :         16         16       0.00          0       0.00          0       0.00          0          0   42052480       8.94         60          0
  quotient         :         12         12       0.00          0       0.00          0       0.00          0          0   13845099      14.06     637999          0
  quadratic        :         18        520       0.00    6275394       8.34    5980919      16.29    2173349       5808          0       0.00          0          0
  default          :        208       5205       0.00   41742816      13.20   25051347      31.51    6862755      25182   63009959     622.70    6837184          0
  bilinear         :         30         30       0.00   12338140       0.76    7703505       0.37          0          0   27204989       2.76          0          0
  perspective      :          0          0       0.00          0       0.00          0       0.00          0          0          0       0.00          0          0
LP                 :       Time      Calls Iterations  Iter/call   Iter/sec  Time-0-It Calls-0-It    ItLimit
  primal LP        :     835.66     241411   10573777   91153.25   12653.27     170.06     241295
  dual LP          :    1164.13    1776093   11149702       6.61    9577.74      34.77      89920
  lex dual LP      :       0.00          0          0       0.00          -
  barrier LP       :       0.00          0          0       0.00          -       0.00          0
  resolve instable :       0.00          2         30      15.00          -
  diving/probing LP:      15.93      13882      96795       6.97    6076.19
  strong branching :       7.19       7216      34346       4.76    4775.38          -          -        960
    (at root node) :          -          0          0       0.00          -
  conflict analysis:       0.00          0          0       0.00          -
NLP relaxation     :
  solve time       :       0.46 (8 calls)
  convexity        :  nonconvex (31 linear rows, 0 convex ineq., 0 nonconvex ineq., 44 nonlinear eq. or two-sided ineq.)
NLP Solvers        :  #Problems  ProblemTi    #Solves  SolveTime      #Iter  Time/Iter      #Okay #TimeLimit #IterLimit #LObjLimit #Interrupt  #NumError #EvalError  #OutOfMem #LicenseEr #OtherTerm   #GlobOpt    #LocOpt  #Feasible #LocInfeas #GlobInfea #Unbounded   #Unknown
  ipopt            :        223       2.38        244      96.37      54685       0.00         72          0         36          0          0        133          3          0          0          0          0          0        133         62          0          0         49
B&B Tree           :
  number of runs   :          1
  nodes            :     302600 (241570 internal, 61030 leaves)
  feasible leaves  :          0
  infeas. leaves   :      56774
  objective leaves :       4255
  nodes (total)    :     302600 (241570 internal, 61030 leaves)
  nodes left       :     179752
  max depth        :         67
  max depth (total):         67
  backtracks       :      33780 (11.2%)
  early backtracks :          0 (0.0%)
  nodes exc. ref.  :          0 (0.0%)
  delayed cutoffs  :         19
  repropagations   :      20804 (12863 domain reductions, 11 cutoffs)
  avg switch length:       4.16
  switching time   :     831.28
Root Node          :
  First LP value   : +8.21110494499473e+03
  First LP Iters   :         61 (45692.88 Iter/sec)
  First LP Time    :       0.00
  Final Dual Bound : +1.11900432137412e+04
  Final Root Iters :        511
  Root LP Estimate :                     -
Solution           :
  Solutions found  :        127 (9 improvements)
  First Solution   : +1.23313341530394e+05   (in run 1, after 42 nodes, 20.02 seconds, depth 20, found by <alns>)
  Gap First Sol.   :    1001.99 %
  Gap Last Sol.    :     286.00 %
  Primal Bound     : +1.16955522081905e+05   (in run 1, after 252138 nodes, 2396.14 seconds, depth 39, found by <subnlp>)
  Dual Bound       : +3.04626082918789e+04
  Gap              :     283.93 %
Integrals          :      Total       Avg%
  primal-dual      :  270295.40      75.08
  primal-ref       :          -          - (not evaluated)
  dual-ref         :          -          - (not evaluated)
